20
 N2C1W4_A 
 100 100 0 
100
99
97
96
96
96
94
94
94
93
93
93
92
91
90
90
90
89
89
88
88
83
83
82
82
81
80
80
80
79
79
79
79
78
78
78
76
74
74
73
73
71
70
69
69
68
67
67
66
65
64
63
63
63
62
59
58
58
57
56
56
56
56
53
53
53
52
51
51
50
49
48
48
48
47
46
46
45
43
42
41
41
39
39
39
38
38
38
38
38
37
37
37
36
36
33
32
32
31
31
 N2C1W4_B 
 100 100 0 
100
100
99
99
99
97
96
95
95
93
93
93
91
89
89
89
88
87
87
86
85
85
84
83
81
80
80
79
79
78
78
78
77
75
75
73
73
73
72
71
71
70
70
69
66
65
65
63
60
60
59
59
58
58
57
57
55
55
55
55
54
54
53
53
52
51
50
50
49
49
49
48
45
45
45
45
44
44
43
43
41
41
40
40
40
36
36
35
34
34
33
33
33
33
33
32
32
32
32
30
 N2C1W4_C 
 100 100 0 
99
97
97
96
96
94
93
93
92
92
91
90
90
90
88
87
87
86
86
86
85
85
85
85
84
84
83
83
82
82
81
81
81
79
79
78
77
76
76
76
76
76
74
74
73
71
71
70
70
69
69
67
67
66
65
65
65
63
62
62
61
60
60
60
59
59
58
57
56
56
55
55
54
53
52
51
50
50
48
48
43
40
38
38
38
37
35
35
35
35
34
33
33
32
32
31
31
31
31
30
 N2C1W4_D 
 100 100 0 
100
100
99
98
98
97
97
96
95
95
94
94
94
93
92
89
89
88
88
88
88
87
86
85
84
84
82
81
81
80
79
78
77
77
76
76
76
76
74
74
74
73
72
72
72
71
71
71
69
69
68
68
68
68
67
67
66
66
65
65
64
64
62
61
58
57
57
57
56
55
54
54
54
53
53
52
52
52
52
51
51
50
49
49
48
47
46
45
45
40
40
39
37
37
35
34
34
33
33
30
 N2C1W4_E 
 100 100 0 
99
99
98
97
97
96
96
95
95
95
94
94
94
94
91
91
89
88
87
86
86
85
84
83
82
82
82
81
81
79
78
78
76
76
76
76
73
72
71
71
70
70
70
69
69
69
69
69
68
68
67
66
65
64
61
61
61
61
60
60
59
59
58
57
57
55
54
54
48
45
45
44
44
43
42
42
42
42
41
41
39
38
37
37
36
36
35
35
35
35
34
34
34
33
33
32
31
31
31
30
 N2C1W4_F 
 100 100 0 
100
100
99
97
97
95
95
95
94
93
92
91
90
89
89
88
87
87
86
84
83
82
80
80
80
80
80
80
79
79
79
79
78
76
76
76
76
73
73
72
71
71
70
69
69
69
69
68
67
66
66
66
64
64
64
62
62
62
62
61
60
60
59
58
58
58
58
57
57
56
56
56
56
56
53
52
50
49
48
47
44
44
43
42
40
39
37
37
36
36
36
35
35
34
33
33
33
32
30
30
 N2C1W4_G 
 100 100 0 
100
100
98
98
96
95
95
95
94
94
93
93
88
87
85
84
80
80
80
79
78
78
78
77
77
77
76
76
73
71
71
70
70
70
70
69
69
68
67
67
66
66
66
66
66
66
66
64
63
63
63
61
61
61
61
60
59
59
59
58
57
57
57
56
55
54
54
53
51
51
49
49
49
48
47
45
44
44
42
41
41
41
40
39
39
39
38
38
37
37
37
36
35
34
34
33
32
32
32
31
 N2C1W4_H 
 100 100 0 
100
100
99
99
98
98
97
96
96
94
94
94
94
93
91
90
89
87
87
87
86
84
84
84
83
82
80
79
75
75
75
74
74
73
73
73
72
71
70
69
69
69
68
68
68
67
65
65
63
63
61
61
61
61
60
60
60
60
60
59
59
58
57
57
56
56
55
54
54
54
51
50
50
49
49
49
49
48
48
48
46
46
44
42
42
41
40
40
38
37
35
35
34
34
33
33
33
33
32
31
 N2C1W4_I 
 100 100 0 
98
97
97
96
96
95
95
95
95
92
92
92
91
91
91
91
90
88
87
86
85
83
82
81
80
79
77
76
76
75
75
75
74
74
72
72
72
71
71
71
70
70
70
69
69
68
67
65
65
64
63
63
62
62
62
61
61
60
59
59
59
59
58
58
56
56
55
55
52
51
50
48
48
47
47
47
46
45
44
44
42
42
42
41
40
39
38
36
36
36
35
35
35
35
34
32
32
32
30
30
 N2C1W4_J 
 100 100 0 
100
99
99
98
97
97
97
96
96
96
95
93
91
90
87
87
86
86
84
83
82
81
81
81
80
79
79
77
77
76
76
75
74
72
72
72
71
70
70
70
69
69
68
68
67
67
67
66
66
66
65
65
65
64
64
62
60
59
57
57
57
57
55
55
55
55
53
53
52
52
52
50
50
50
49
49
48
47
47
45
45
45
44
43
42
39
39
39
38
38
38
37
35
35
34
32
32
31
30
30
 N2C1W4_K 
 100 100 0 
99
98
98
97
97
97
95
94
94
94
93
93
91
91
90
89
89
88
88
87
86
83
83
82
82
81
81
80
80
79
79
78
76
74
73
73
72
71
71
70
70
70
68
68
67
66
66
65
64
64
61
61
60
59
59
57
56
56
56
56
56
55
54
53
51
51
51
51
50
50
50
49
47
47
47
46
46
45
45
43
43
42
41
40
40
39
39
38
38
37
35
34
34
34
33
33
32
30
30
30
 N2C1W4_L 
 100 100 0 
99
99
96
96
95
95
94
94
93
91
91
88
88
87
87
87
87
84
84
83
83
82
82
82
81
81
81
80
78
77
77
76
76
76
74
74
74
74
74
73
73
73
73
73
72
72
71
71
70
70
69
68
67
64
64
63
62
60
60
59
59
59
58
58
57
57
57
55
55
53
52
51
50
49
48
46
46
45
43
43
42
42
42
42
42
40
40
40
38
37
36
36
34
34
33
33
33
31
30
30
 N2C1W4_M 
 100 100 0 
100
100
99
99
99
99
98
98
97
96
96
96
96
95
95
95
95
91
90
89
88
87
86
84
83
83
82
80
79
77
77
76
76
74
74
74
73
72
72
71
71
70
69
68
67
67
66
66
65
63
60
60
59
59
58
57
57
56
56
54
53
53
53
53
52
51
50
50
50
50
49
47
47
46
46
45
44
43
42
42
42
41
41
39
38
38
38
37
37
36
36
36
35
35
35
33
32
32
32
31
 N2C1W4_N 
 100 100 0 
100
100
99
99
98
98
97
97
96
96
96
95
94
94
92
91
91
90
90
90
88
87
85
85
84
83
83
81
80
79
79
78
76
76
76
75
74
74
74
73
71
70
67
67
67
66
66
66
64
64
64
64
63
63
61
59
59
58
58
58
56
56
56
54
53
53
52
51
50
50
49
48
48
48
48
46
45
44
41
40
40
40
39
39
37
37
36
36
36
35
35
34
33
33
33
33
32
31
31
30
 N2C1W4_O 
 100 100 0 
100
100
100
100
99
99
98
98
98
97
97
97
96
95
95
94
94
94
94
93
93
93
92
92
92
91
91
90
87
86
86
85
85
84
83
83
80
79
78
78
77
76
74
72
72
72
71
71
71
71
70
70
69
68
67
66
65
64
63
63
62
62
62
60
59
59
58
58
57
57
56
55
55
54
53
52
52
51
51
51
49
46
42
41
41
41
40
40
39
39
39
38
36
36
34
34
33
31
30
30
 N2C1W4_P 
 100 100 0 
99
99
98
96
93
93
92
91
91
91
90
89
89
88
85
85
83
82
82
81
80
79
78
78
74
74
70
69
69
66
65
65
64
64
64
64
63
63
62
62
62
62
61
61
61
61
61
59
59
59
58
58
57
57
56
55
55
54
53
53
52
52
51
49
48
48
47
47
47
47
45
45
45
44
44
43
43
43
42
42
42
42
41
41
41
40
40
39
37
37
36
36
35
34
34
34
32
32
30
30
 N2C1W4_Q 
 100 100 0 
100
100
98
98
97
97
94
93
93
92
92
92
91
91
91
90
89
89
89
88
87
86
85
83
83
83
82
81
80
80
80
79
79
78
77
77
77
77
77
75
75
74
74
74
72
70
69
69
69
66
66
66
66
65
64
64
63
62
61
61
60
60
60
58
57
57
56
56
54
52
50
49
49
48
47
46
44
43
42
42
40
40
40
40
39
39
39
39
38
38
38
38
36
36
35
35
35
34
33
32
 N2C1W4_R 
 100 100 0 
99
98
98
97
96
96
96
95
95
94
94
93
93
92
92
91
90
89
87
86
85
84
82
82
80
79
79
78
78
77
76
75
75
75
75
74
74
74
73
70
69
67
67
66
64
64
63
62
62
62
61
61
60
60
59
59
58
58
57
57
56
55
54
54
54
51
50
49
49
49
48
48
48
47
47
44
43
43
42
41
41
41
40
40
40
40
39
39
38
36
36
36
35
35
33
32
32
32
31
31
 N2C1W4_S 
 100 100 0 
100
100
100
100
99
99
99
99
98
97
97
97
96
96
96
95
94
94
93
92
91
91
91
90
89
89
88
88
85
85
82
82
80
80
79
78
77
76
75
75
75
75
74
73
72
71
71
70
69
69
69
67
67
66
66
66
66
65
64
64
64
64
62
62
61
59
59
59
58
56
56
56
55
55
54
52
50
50
49
49
48
48
48
47
46
44
44
43
43
40
40
39
38
35
35
33
33
31
30
30
 N2C1W4_T 
 100 100 0 
98
97
97
97
96
96
95
92
91
90
89
89
88
88
87
87
87
86
86
86
85
85
83
83
83
82
81
80
79
78
78
78
78
75
71
70
70
70
70
69
68
67
65
65
64
64
63
61
61
61
61
60
60
60
60
59
57
57
54
54
54
54
53
53
53
52
51
50
50
50
49
46
46
46
46
46
45
44
44
44
42
42
41
40
40
39
39
38
38
38
37
36
35
35
34
34
34
34
32
32
